31
1 0 20
2 0 3
2 1 1
3 0 44
3 1 32
3 2 9
4 0 13
4 1 45
4 2 8
4 3 33
5 0 26
5 1 29
5 2 46
5 3 42
5 4 8
6 0 42
6 1 18
6 2 6
6 3 41
6 4 15
6 5 24
7 0 20
7 1 1
7 2 39
7 3 16
7 4 19
7 5 17
7 6 29
8 0 20
8 1 26
8 2 35
8 3 17
8 4 28
8 5 7
8 6 32
8 7 45
9 0 32
9 1 2
9 2 32
9 3 2
9 4 30
9 5 29
9 6 35
9 7 3
9 8 45
10 0 25
10 1 45
10 2 20
10 3 17
10 4 25
10 5 4
10 6 40
10 7 27
10 8 3
10 9 34
11 0 29
11 1 12
11 2 13
11 3 22
11 4 28
11 5 12
11 6 31
11 7 39
11 8 13
11 9 23
11 10 6
12 0 15
12 1 9
12 2 20
12 3 27
12 4 24
12 5 8
12 6 35
12 7 26
12 8 9
12 9 32
12 10 2
12 11 31
13 0 9
13 1 4
13 2 43
13 3 31
13 4 39
13 5 12
13 6 37
13 7 7
13 8 32
13 9 22
13 10 21
13 11 41
13 12 34
14 0 3
14 1 14
14 2 43
14 3 19
14 4 13
14 5 30
14 6 21
14 7 43
14 8 30
14 9 12
14 10 3
14 11 36
14 12 23
14 13 35
15 0 18
15 1 20
15 2 21
15 3 31
15 4 34
15 5 39
15 6 5
15 7 35
15 8 14
15 9 42
15 10 25
15 11 12
15 12 19
15 13 2
15 14 25
16 0 2
16 1 21
16 2 39
16 3 28
16 4 36
16 5 30
16 6 8
16 7 24
16 8 41
16 9 38
16 10 11
16 11 13
16 12 21
16 13 41
16 14 24
16 15 30
17 0 30
17 1 22
17 2 26
17 3 23
17 4 16
17 5 4
17 6 8
17 7 5
17 8 39
17 9 36
17 10 12
17 11 16
17 12 46
17 13 7
17 14 21
17 15 12
17 16 2
18 0 2
18 1 24
18 2 40
18 3 44
18 4 15
18 5 32
18 6 19
18 7 21
18 8 41
18 9 37
18 10 20
18 11 17
18 12 16
18 13 40
18 14 11
18 15 20
18 16 9
18 17 13
19 0 43
19 1 30
19 2 25
19 3 39
19 4 27
19 5 33
19 6 32
19 7 15
19 8 33
19 9 11
19 10 38
19 11 16
19 12 43
19 13 22
19 14 3
19 15 35
19 16 14
19 17 13
19 18 15
20 0 24
20 1 4
20 2 8
20 3 39
20 4 8
20 5 29
20 6 29
20 7 12
20 8 11
20 9 31
20 10 12
20 11 31
20 12 4
20 13 17
20 14 22
20 15 10
20 16 4
20 17 36
20 18 26
20 19 23
21 0 4
21 1 28
21 2 22
21 3 36
21 4 43
21 5 19
21 6 28
21 7 1
21 8 39
21 9 30
21 10 27
21 11 27
21 12 16
21 13 9
21 14 30
21 15 5
21 16 3
21 17 10
21 18 9
21 19 28
21 20 23
22 0 32
22 1 25
22 2 21
22 3 20
22 4 30
22 5 4
22 6 44
22 7 38
22 8 7
22 9 19
22 10 12
22 11 15
22 12 28
22 13 32
22 14 38
22 15 22
22 16 36
22 17 3
22 18 7
22 19 31
22 20 35
22 21 7
23 0 7
23 1 7
23 2 22
23 3 17
23 4 46
23 5 26
23 6 45
23 7 27
23 8 13
23 9 2
23 10 6
23 11 7
23 12 4
23 13 39
23 14 24
23 15 18
23 16 8
23 17 41
23 18 7
23 19 11
23 20 10
23 21 29
23 22 28
24 0 25
24 1 45
24 2 16
24 3 45
24 4 45
24 5 2
24 6 35
24 7 6
24 8 45
24 9 43
24 10 19
24 11 23
24 12 39
24 13 17
24 14 8
24 15 37
24 16 3
24 17 27
24 18 3
24 19 20
24 20 24
24 21 41
24 22 9
24 23 9
25 0 46
25 1 22
25 2 7
25 3 39
25 4 9
25 5 22
25 6 33
25 7 19
25 8 18
25 9 5
25 10 14
25 11 22
25 12 9
25 13 13
25 14 24
25 15 31
25 16 41
25 17 15
25 18 7
25 19 11
25 20 40
25 21 13
25 22 1
25 23 16
25 24 33
26 0 1
26 1 30
26 2 22
26 3 41
26 4 21
26 5 31
26 6 6
26 7 19
26 8 10
26 9 30
26 10 25
26 11 32
26 12 33
26 13 23
26 14 22
26 15 27
26 16 22
26 17 25
26 18 41
26 19 15
26 20 11
26 21 13
26 22 11
26 23 29
26 24 40
26 25 9
27 0 34
27 1 26
27 2 29
27 3 4
27 4 33
27 5 30
27 6 41
27 7 42
27 8 6
27 9 18
27 10 21
27 11 5
27 12 26
27 13 11
27 14 12
27 15 36
27 16 21
27 17 28
27 18 33
27 19 11
27 20 20
27 21 25
27 22 27
27 23 43
27 24 33
27 25 1
27 26 24
28 0 29
28 1 19
28 2 6
28 3 41
28 4 14
28 5 38
28 6 26
28 7 37
28 8 10
28 9 2
28 10 7
28 11 45
28 12 10
28 13 39
28 14 8
28 15 11
28 16 3
28 17 12
28 18 11
28 19 27
28 20 19
28 21 20
28 22 20
28 23 8
28 24 32
28 25 40
28 26 43
28 27 31
29 0 4
29 1 42
29 2 2
29 3 38
29 4 19
29 5 3
29 6 27
29 7 10
29 8 14
29 9 34
29 10 12
29 11 18
29 12 19
29 13 12
29 14 37
29 15 7
29 16 12
29 17 24
29 18 31
29 19 19
29 20 44
29 21 6
29 22 27
29 23 45
29 24 5
29 25 23
29 26 18
29 27 10
29 28 16
30 0 44
30 1 39
30 2 20
30 3 28
30 4 28
30 5 24
30 6 21
30 7 42
30 8 2
30 9 30
30 10 34
30 11 11
30 12 34
30 13 36
30 14 37
30 15 41
30 16 31
30 17 33
30 18 5
30 19 14
30 20 42
30 21 30
30 22 31
30 23 13
30 24 42
30 25 44
30 26 30
30 27 11
30 28 28
30 29 30
